p cnf 328 1640
c Factors encoded in variables 1-10 and 11-20
2 3 4 5 6 7 8 9 10 0
12 13 14 15 16 17 18 19 20 0
-21 0
22 0
-123 24 33 0
-123 -24 -33 0
123 24 -33 0
123 -24 33 0
-24 -33 124 0
24 33 -124 0
24 -124 0
33 -124 0
-125 25 34 124 0
-125 -25 -34 124 0
-125 -25 34 -124 0
-125 25 -34 -124 0
125 -25 -34 -124 0
125 25 34 -124 0
125 25 -34 124 0
125 -25 34 124 0
-25 -34 126 0
-25 -124 126 0
-34 -124 126 0
25 34 -126 0
25 124 -126 0
34 124 -126 0
-127 26 35 126 0
-127 -26 -35 126 0
-127 -26 35 -126 0
-127 26 -35 -126 0
127 -26 -35 -126 0
127 26 35 -126 0
127 26 -35 126 0
127 -26 35 126 0
-26 -35 128 0
-26 -126 128 0
-35 -126 128 0
26 35 -128 0
26 126 -128 0
35 126 -128 0
-129 27 36 128 0
-129 -27 -36 128 0
-129 -27 36 -128 0
-129 27 -36 -128 0
129 -27 -36 -128 0
129 27 36 -128 0
129 27 -36 128 0
129 -27 36 128 0
-27 -36 130 0
-27 -128 130 0
-36 -128 130 0
27 36 -130 0
27 128 -130 0
36 128 -130 0
-131 28 37 130 0
-131 -28 -37 130 0
-131 -28 37 -130 0
-131 28 -37 -130 0
131 -28 -37 -130 0
131 28 37 -130 0
131 28 -37 130 0
131 -28 37 130 0
-28 -37 132 0
-28 -130 132 0
-37 -130 132 0
28 37 -132 0
28 130 -132 0
37 130 -132 0
-133 29 38 132 0
-133 -29 -38 132 0
-133 -29 38 -132 0
-133 29 -38 -132 0
133 -29 -38 -132 0
133 29 38 -132 0
133 29 -38 132 0
133 -29 38 132 0
-29 -38 134 0
-29 -132 134 0
-38 -132 134 0
29 38 -134 0
29 132 -134 0
38 132 -134 0
-135 30 39 134 0
-135 -30 -39 134 0
-135 -30 39 -134 0
-135 30 -39 -134 0
135 -30 -39 -134 0
135 30 39 -134 0
135 30 -39 134 0
135 -30 39 134 0
-30 -39 136 0
-30 -134 136 0
-39 -134 136 0
30 39 -136 0
30 134 -136 0
39 134 -136 0
-137 31 40 136 0
-137 -31 -40 136 0
-137 -31 40 -136 0
-137 31 -40 -136 0
137 -31 -40 -136 0
137 31 40 -136 0
137 31 -40 136 0
137 -31 40 136 0
-31 -40 138 0
-31 -136 138 0
-40 -136 138 0
31 40 -138 0
31 136 -138 0
40 136 -138 0
-139 32 41 138 0
-139 -32 -41 138 0
-139 -32 41 -138 0
-139 32 -41 -138 0
139 -32 -41 -138 0
139 32 41 -138 0
139 32 -41 138 0
139 -32 41 138 0
-32 -41 140 0
-32 -138 140 0
-41 -138 140 0
32 41 -140 0
32 138 -140 0
41 138 -140 0
-141 42 140 0
-141 -42 -140 0
141 42 -140 0
141 -42 140 0
-42 -140 142 0
42 140 -142 0
42 -142 0
140 -142 0
-143 44 53 0
-143 -44 -53 0
143 44 -53 0
143 -44 53 0
-44 -53 144 0
44 53 -144 0
44 -144 0
53 -144 0
-145 45 54 144 0
-145 -45 -54 144 0
-145 -45 54 -144 0
-145 45 -54 -144 0
145 -45 -54 -144 0
145 45 54 -144 0
145 45 -54 144 0
145 -45 54 144 0
-45 -54 146 0
-45 -144 146 0
-54 -144 146 0
45 54 -146 0
45 144 -146 0
54 144 -146 0
-147 46 55 146 0
-147 -46 -55 146 0
-147 -46 55 -146 0
-147 46 -55 -146 0
147 -46 -55 -146 0
147 46 55 -146 0
147 46 -55 146 0
147 -46 55 146 0
-46 -55 148 0
-46 -146 148 0
-55 -146 148 0
46 55 -148 0
46 146 -148 0
55 146 -148 0
-149 47 56 148 0
-149 -47 -56 148 0
-149 -47 56 -148 0
-149 47 -56 -148 0
149 -47 -56 -148 0
149 47 56 -148 0
149 47 -56 148 0
149 -47 56 148 0
-47 -56 150 0
-47 -148 150 0
-56 -148 150 0
47 56 -150 0
47 148 -150 0
56 148 -150 0
-151 48 57 150 0
-151 -48 -57 150 0
-151 -48 57 -150 0
-151 48 -57 -150 0
151 -48 -57 -150 0
151 48 57 -150 0
151 48 -57 150 0
151 -48 57 150 0
-48 -57 152 0
-48 -150 152 0
-57 -150 152 0
48 57 -152 0
48 150 -152 0
57 150 -152 0
-153 49 58 152 0
-153 -49 -58 152 0
-153 -49 58 -152 0
-153 49 -58 -152 0
153 -49 -58 -152 0
153 49 58 -152 0
153 49 -58 152 0
153 -49 58 152 0
-49 -58 154 0
-49 -152 154 0
-58 -152 154 0
49 58 -154 0
49 152 -154 0
58 152 -154 0
-155 50 59 154 0
-155 -50 -59 154 0
-155 -50 59 -154 0
-155 50 -59 -154 0
155 -50 -59 -154 0
155 50 59 -154 0
155 50 -59 154 0
155 -50 59 154 0
-50 -59 156 0
-50 -154 156 0
-59 -154 156 0
50 59 -156 0
50 154 -156 0
59 154 -156 0
-157 51 60 156 0
-157 -51 -60 156 0
-157 -51 60 -156 0
-157 51 -60 -156 0
157 -51 -60 -156 0
157 51 60 -156 0
157 51 -60 156 0
157 -51 60 156 0
-51 -60 158 0
-51 -156 158 0
-60 -156 158 0
51 60 -158 0
51 156 -158 0
60 156 -158 0
-159 52 61 158 0
-159 -52 -61 158 0
-159 -52 61 -158 0
-159 52 -61 -158 0
159 -52 -61 -158 0
159 52 61 -158 0
159 52 -61 158 0
159 -52 61 158 0
-52 -61 160 0
-52 -158 160 0
-61 -158 160 0
52 61 -160 0
52 158 -160 0
61 158 -160 0
-161 62 160 0
-161 -62 -160 0
161 62 -160 0
161 -62 160 0
-62 -160 162 0
62 160 -162 0
62 -162 0
160 -162 0
-163 64 73 0
-163 -64 -73 0
163 64 -73 0
163 -64 73 0
-64 -73 164 0
64 73 -164 0
64 -164 0
73 -164 0
-165 65 74 164 0
-165 -65 -74 164 0
-165 -65 74 -164 0
-165 65 -74 -164 0
165 -65 -74 -164 0
165 65 74 -164 0
165 65 -74 164 0
165 -65 74 164 0
-65 -74 166 0
-65 -164 166 0
-74 -164 166 0
65 74 -166 0
65 164 -166 0
74 164 -166 0
-167 66 75 166 0
-167 -66 -75 166 0
-167 -66 75 -166 0
-167 66 -75 -166 0
167 -66 -75 -166 0
167 66 75 -166 0
167 66 -75 166 0
167 -66 75 166 0
-66 -75 168 0
-66 -166 168 0
-75 -166 168 0
66 75 -168 0
66 166 -168 0
75 166 -168 0
-169 67 76 168 0
-169 -67 -76 168 0
-169 -67 76 -168 0
-169 67 -76 -168 0
169 -67 -76 -168 0
169 67 76 -168 0
169 67 -76 168 0
169 -67 76 168 0
-67 -76 170 0
-67 -168 170 0
-76 -168 170 0
67 76 -170 0
67 168 -170 0
76 168 -170 0
-171 68 77 170 0
-171 -68 -77 170 0
-171 -68 77 -170 0
-171 68 -77 -170 0
171 -68 -77 -170 0
171 68 77 -170 0
171 68 -77 170 0
171 -68 77 170 0
-68 -77 172 0
-68 -170 172 0
-77 -170 172 0
68 77 -172 0
68 170 -172 0
77 170 -172 0
-173 69 78 172 0
-173 -69 -78 172 0
-173 -69 78 -172 0
-173 69 -78 -172 0
173 -69 -78 -172 0
173 69 78 -172 0
173 69 -78 172 0
173 -69 78 172 0
-69 -78 174 0
-69 -172 174 0
-78 -172 174 0
69 78 -174 0
69 172 -174 0
78 172 -174 0
-175 70 79 174 0
-175 -70 -79 174 0
-175 -70 79 -174 0
-175 70 -79 -174 0
175 -70 -79 -174 0
175 70 79 -174 0
175 70 -79 174 0
175 -70 79 174 0
-70 -79 176 0
-70 -174 176 0
-79 -174 176 0
70 79 -176 0
70 174 -176 0
79 174 -176 0
-177 71 80 176 0
-177 -71 -80 176 0
-177 -71 80 -176 0
-177 71 -80 -176 0
177 -71 -80 -176 0
177 71 80 -176 0
177 71 -80 176 0
177 -71 80 176 0
-71 -80 178 0
-71 -176 178 0
-80 -176 178 0
71 80 -178 0
71 176 -178 0
80 176 -178 0
-179 72 81 178 0
-179 -72 -81 178 0
-179 -72 81 -178 0
-179 72 -81 -178 0
179 -72 -81 -178 0
179 72 81 -178 0
179 72 -81 178 0
179 -72 81 178 0
-72 -81 180 0
-72 -178 180 0
-81 -178 180 0
72 81 -180 0
72 178 -180 0
81 178 -180 0
-181 82 180 0
-181 -82 -180 0
181 82 -180 0
181 -82 180 0
-82 -180 182 0
82 180 -182 0
82 -182 0
180 -182 0
-183 84 93 0
-183 -84 -93 0
183 84 -93 0
183 -84 93 0
-84 -93 184 0
84 93 -184 0
84 -184 0
93 -184 0
-185 85 94 184 0
-185 -85 -94 184 0
-185 -85 94 -184 0
-185 85 -94 -184 0
185 -85 -94 -184 0
185 85 94 -184 0
185 85 -94 184 0
185 -85 94 184 0
-85 -94 186 0
-85 -184 186 0
-94 -184 186 0
85 94 -186 0
85 184 -186 0
94 184 -186 0
-187 86 95 186 0
-187 -86 -95 186 0
-187 -86 95 -186 0
-187 86 -95 -186 0
187 -86 -95 -186 0
187 86 95 -186 0
187 86 -95 186 0
187 -86 95 186 0
-86 -95 188 0
-86 -186 188 0
-95 -186 188 0
86 95 -188 0
86 186 -188 0
95 186 -188 0
-189 87 96 188 0
-189 -87 -96 188 0
-189 -87 96 -188 0
-189 87 -96 -188 0
189 -87 -96 -188 0
189 87 96 -188 0
189 87 -96 188 0
189 -87 96 188 0
-87 -96 190 0
-87 -188 190 0
-96 -188 190 0
87 96 -190 0
87 188 -190 0
96 188 -190 0
-191 88 97 190 0
-191 -88 -97 190 0
-191 -88 97 -190 0
-191 88 -97 -190 0
191 -88 -97 -190 0
191 88 97 -190 0
191 88 -97 190 0
191 -88 97 190 0
-88 -97 192 0
-88 -190 192 0
-97 -190 192 0
88 97 -192 0
88 190 -192 0
97 190 -192 0
-193 89 98 192 0
-193 -89 -98 192 0
-193 -89 98 -192 0
-193 89 -98 -192 0
193 -89 -98 -192 0
193 89 98 -192 0
193 89 -98 192 0
193 -89 98 192 0
-89 -98 194 0
-89 -192 194 0
-98 -192 194 0
89 98 -194 0
89 192 -194 0
98 192 -194 0
-195 90 99 194 0
-195 -90 -99 194 0
-195 -90 99 -194 0
-195 90 -99 -194 0
195 -90 -99 -194 0
195 90 99 -194 0
195 90 -99 194 0
195 -90 99 194 0
-90 -99 196 0
-90 -194 196 0
-99 -194 196 0
90 99 -196 0
90 194 -196 0
99 194 -196 0
-197 91 100 196 0
-197 -91 -100 196 0
-197 -91 100 -196 0
-197 91 -100 -196 0
197 -91 -100 -196 0
197 91 100 -196 0
197 91 -100 196 0
197 -91 100 196 0
-91 -100 198 0
-91 -196 198 0
-100 -196 198 0
91 100 -198 0
91 196 -198 0
100 196 -198 0
-199 92 101 198 0
-199 -92 -101 198 0
-199 -92 101 -198 0
-199 92 -101 -198 0
199 -92 -101 -198 0
199 92 101 -198 0
199 92 -101 198 0
199 -92 101 198 0
-92 -101 200 0
-92 -198 200 0
-101 -198 200 0
92 101 -200 0
92 198 -200 0
101 198 -200 0
-201 102 200 0
-201 -102 -200 0
201 102 -200 0
201 -102 200 0
-102 -200 202 0
102 200 -202 0
102 -202 0
200 -202 0
-203 104 113 0
-203 -104 -113 0
203 104 -113 0
203 -104 113 0
-104 -113 204 0
104 113 -204 0
104 -204 0
113 -204 0
-205 105 114 204 0
-205 -105 -114 204 0
-205 -105 114 -204 0
-205 105 -114 -204 0
205 -105 -114 -204 0
205 105 114 -204 0
205 105 -114 204 0
205 -105 114 204 0
-105 -114 206 0
-105 -204 206 0
-114 -204 206 0
105 114 -206 0
105 204 -206 0
114 204 -206 0
-207 106 115 206 0
-207 -106 -115 206 0
-207 -106 115 -206 0
-207 106 -115 -206 0
207 -106 -115 -206 0
207 106 115 -206 0
207 106 -115 206 0
207 -106 115 206 0
-106 -115 208 0
-106 -206 208 0
-115 -206 208 0
106 115 -208 0
106 206 -208 0
115 206 -208 0
-209 107 116 208 0
-209 -107 -116 208 0
-209 -107 116 -208 0
-209 107 -116 -208 0
209 -107 -116 -208 0
209 107 116 -208 0
209 107 -116 208 0
209 -107 116 208 0
-107 -116 210 0
-107 -208 210 0
-116 -208 210 0
107 116 -210 0
107 208 -210 0
116 208 -210 0
-211 108 117 210 0
-211 -108 -117 210 0
-211 -108 117 -210 0
-211 108 -117 -210 0
211 -108 -117 -210 0
211 108 117 -210 0
211 108 -117 210 0
211 -108 117 210 0
-108 -117 212 0
-108 -210 212 0
-117 -210 212 0
108 117 -212 0
108 210 -212 0
117 210 -212 0
-213 109 118 212 0
-213 -109 -118 212 0
-213 -109 118 -212 0
-213 109 -118 -212 0
213 -109 -118 -212 0
213 109 118 -212 0
213 109 -118 212 0
213 -109 118 212 0
-109 -118 214 0
-109 -212 214 0
-118 -212 214 0
109 118 -214 0
109 212 -214 0
118 212 -214 0
-215 110 119 214 0
-215 -110 -119 214 0
-215 -110 119 -214 0
-215 110 -119 -214 0
215 -110 -119 -214 0
215 110 119 -214 0
215 110 -119 214 0
215 -110 119 214 0
-110 -119 216 0
-110 -214 216 0
-119 -214 216 0
110 119 -216 0
110 214 -216 0
119 214 -216 0
-217 111 120 216 0
-217 -111 -120 216 0
-217 -111 120 -216 0
-217 111 -120 -216 0
217 -111 -120 -216 0
217 111 120 -216 0
217 111 -120 216 0
217 -111 120 216 0
-111 -120 218 0
-111 -216 218 0
-120 -216 218 0
111 120 -218 0
111 216 -218 0
120 216 -218 0
-219 112 121 218 0
-219 -112 -121 218 0
-219 -112 121 -218 0
-219 112 -121 -218 0
219 -112 -121 -218 0
219 112 121 -218 0
219 112 -121 218 0
219 -112 121 218 0
-112 -121 220 0
-112 -218 220 0
-121 -218 220 0
112 121 -220 0
112 218 -220 0
121 218 -220 0
-221 122 220 0
-221 -122 -220 0
221 122 -220 0
221 -122 220 0
-122 -220 222 0
122 220 -222 0
122 -222 0
220 -222 0
-223 125 43 0
-223 -125 -43 0
223 125 -43 0
223 -125 43 0
-125 -43 224 0
125 43 -224 0
125 -224 0
43 -224 0
-225 127 143 224 0
-225 -127 -143 224 0
-225 -127 143 -224 0
-225 127 -143 -224 0
225 -127 -143 -224 0
225 127 143 -224 0
225 127 -143 224 0
225 -127 143 224 0
-127 -143 226 0
-127 -224 226 0
-143 -224 226 0
127 143 -226 0
127 224 -226 0
143 224 -226 0
-227 129 145 226 0
-227 -129 -145 226 0
-227 -129 145 -226 0
-227 129 -145 -226 0
227 -129 -145 -226 0
227 129 145 -226 0
227 129 -145 226 0
227 -129 145 226 0
-129 -145 228 0
-129 -226 228 0
-145 -226 228 0
129 145 -228 0
129 226 -228 0
145 226 -228 0
-229 131 147 228 0
-229 -131 -147 228 0
-229 -131 147 -228 0
-229 131 -147 -228 0
229 -131 -147 -228 0
229 131 147 -228 0
229 131 -147 228 0
229 -131 147 228 0
-131 -147 230 0
-131 -228 230 0
-147 -228 230 0
131 147 -230 0
131 228 -230 0
147 228 -230 0
-231 133 149 230 0
-231 -133 -149 230 0
-231 -133 149 -230 0
-231 133 -149 -230 0
231 -133 -149 -230 0
231 133 149 -230 0
231 133 -149 230 0
231 -133 149 230 0
-133 -149 232 0
-133 -230 232 0
-149 -230 232 0
133 149 -232 0
133 230 -232 0
149 230 -232 0
-233 135 151 232 0
-233 -135 -151 232 0
-233 -135 151 -232 0
-233 135 -151 -232 0
233 -135 -151 -232 0
233 135 151 -232 0
233 135 -151 232 0
233 -135 151 232 0
-135 -151 234 0
-135 -232 234 0
-151 -232 234 0
135 151 -234 0
135 232 -234 0
151 232 -234 0
-235 137 153 234 0
-235 -137 -153 234 0
-235 -137 153 -234 0
-235 137 -153 -234 0
235 -137 -153 -234 0
235 137 153 -234 0
235 137 -153 234 0
235 -137 153 234 0
-137 -153 236 0
-137 -234 236 0
-153 -234 236 0
137 153 -236 0
137 234 -236 0
153 234 -236 0
-237 139 155 236 0
-237 -139 -155 236 0
-237 -139 155 -236 0
-237 139 -155 -236 0
237 -139 -155 -236 0
237 139 155 -236 0
237 139 -155 236 0
237 -139 155 236 0
-139 -155 238 0
-139 -236 238 0
-155 -236 238 0
139 155 -238 0
139 236 -238 0
155 236 -238 0
-239 141 157 238 0
-239 -141 -157 238 0
-239 -141 157 -238 0
-239 141 -157 -238 0
239 -141 -157 -238 0
239 141 157 -238 0
239 141 -157 238 0
239 -141 157 238 0
-141 -157 240 0
-141 -238 240 0
-157 -238 240 0
141 157 -240 0
141 238 -240 0
157 238 -240 0
-241 142 159 240 0
-241 -142 -159 240 0
-241 -142 159 -240 0
-241 142 -159 -240 0
241 -142 -159 -240 0
241 142 159 -240 0
241 142 -159 240 0
241 -142 159 240 0
-142 -159 242 0
-142 -240 242 0
-159 -240 242 0
142 159 -242 0
142 240 -242 0
159 240 -242 0
-243 161 242 0
-243 -161 -242 0
243 161 -242 0
243 -161 242 0
-161 -242 244 0
161 242 -244 0
161 -244 0
242 -244 0
-245 162 244 0
-245 -162 -244 0
245 162 -244 0
245 -162 244 0
-162 -244 246 0
162 244 -246 0
162 -246 0
244 -246 0
-247 165 83 0
-247 -165 -83 0
247 165 -83 0
247 -165 83 0
-165 -83 248 0
165 83 -248 0
165 -248 0
83 -248 0
-249 167 183 248 0
-249 -167 -183 248 0
-249 -167 183 -248 0
-249 167 -183 -248 0
249 -167 -183 -248 0
249 167 183 -248 0
249 167 -183 248 0
249 -167 183 248 0
-167 -183 250 0
-167 -248 250 0
-183 -248 250 0
167 183 -250 0
167 248 -250 0
183 248 -250 0
-251 169 185 250 0
-251 -169 -185 250 0
-251 -169 185 -250 0
-251 169 -185 -250 0
251 -169 -185 -250 0
251 169 185 -250 0
251 169 -185 250 0
251 -169 185 250 0
-169 -185 252 0
-169 -250 252 0
-185 -250 252 0
169 185 -252 0
169 250 -252 0
185 250 -252 0
-253 171 187 252 0
-253 -171 -187 252 0
-253 -171 187 -252 0
-253 171 -187 -252 0
253 -171 -187 -252 0
253 171 187 -252 0
253 171 -187 252 0
253 -171 187 252 0
-171 -187 254 0
-171 -252 254 0
-187 -252 254 0
171 187 -254 0
171 252 -254 0
187 252 -254 0
-255 173 189 254 0
-255 -173 -189 254 0
-255 -173 189 -254 0
-255 173 -189 -254 0
255 -173 -189 -254 0
255 173 189 -254 0
255 173 -189 254 0
255 -173 189 254 0
-173 -189 256 0
-173 -254 256 0
-189 -254 256 0
173 189 -256 0
173 254 -256 0
189 254 -256 0
-257 175 191 256 0
-257 -175 -191 256 0
-257 -175 191 -256 0
-257 175 -191 -256 0
257 -175 -191 -256 0
257 175 191 -256 0
257 175 -191 256 0
257 -175 191 256 0
-175 -191 258 0
-175 -256 258 0
-191 -256 258 0
175 191 -258 0
175 256 -258 0
191 256 -258 0
-259 177 193 258 0
-259 -177 -193 258 0
-259 -177 193 -258 0
-259 177 -193 -258 0
259 -177 -193 -258 0
259 177 193 -258 0
259 177 -193 258 0
259 -177 193 258 0
-177 -193 260 0
-177 -258 260 0
-193 -258 260 0
177 193 -260 0
177 258 -260 0
193 258 -260 0
-261 179 195 260 0
-261 -179 -195 260 0
-261 -179 195 -260 0
-261 179 -195 -260 0
261 -179 -195 -260 0
261 179 195 -260 0
261 179 -195 260 0
261 -179 195 260 0
-179 -195 262 0
-179 -260 262 0
-195 -260 262 0
179 195 -262 0
179 260 -262 0
195 260 -262 0
-263 181 197 262 0
-263 -181 -197 262 0
-263 -181 197 -262 0
-263 181 -197 -262 0
263 -181 -197 -262 0
263 181 197 -262 0
263 181 -197 262 0
263 -181 197 262 0
-181 -197 264 0
-181 -262 264 0
-197 -262 264 0
181 197 -264 0
181 262 -264 0
197 262 -264 0
-265 182 199 264 0
-265 -182 -199 264 0
-265 -182 199 -264 0
-265 182 -199 -264 0
265 -182 -199 -264 0
265 182 199 -264 0
265 182 -199 264 0
265 -182 199 264 0
-182 -199 266 0
-182 -264 266 0
-199 -264 266 0
182 199 -266 0
182 264 -266 0
199 264 -266 0
-267 201 266 0
-267 -201 -266 0
267 201 -266 0
267 -201 266 0
-201 -266 268 0
201 266 -268 0
201 -268 0
266 -268 0
-269 202 268 0
-269 -202 -268 0
269 202 -268 0
269 -202 268 0
-202 -268 270 0
202 268 -270 0
202 -270 0
268 -270 0
-271 235 103 0
-271 -235 -103 0
271 235 -103 0
271 -235 103 0
-235 -103 272 0
235 103 -272 0
235 -272 0
103 -272 0
-273 237 203 272 0
-273 -237 -203 272 0
-273 -237 203 -272 0
-273 237 -203 -272 0
273 -237 -203 -272 0
273 237 203 -272 0
273 237 -203 272 0
273 -237 203 272 0
-237 -203 274 0
-237 -272 274 0
-203 -272 274 0
237 203 -274 0
237 272 -274 0
203 272 -274 0
-275 239 205 274 0
-275 -239 -205 274 0
-275 -239 205 -274 0
-275 239 -205 -274 0
275 -239 -205 -274 0
275 239 205 -274 0
275 239 -205 274 0
275 -239 205 274 0
-239 -205 276 0
-239 -274 276 0
-205 -274 276 0
239 205 -276 0
239 274 -276 0
205 274 -276 0
-277 241 207 276 0
-277 -241 -207 276 0
-277 -241 207 -276 0
-277 241 -207 -276 0
277 -241 -207 -276 0
277 241 207 -276 0
277 241 -207 276 0
277 -241 207 276 0
-241 -207 278 0
-241 -276 278 0
-207 -276 278 0
241 207 -278 0
241 276 -278 0
207 276 -278 0
-279 243 209 278 0
-279 -243 -209 278 0
-279 -243 209 -278 0
-279 243 -209 -278 0
279 -243 -209 -278 0
279 243 209 -278 0
279 243 -209 278 0
279 -243 209 278 0
-243 -209 280 0
-243 -278 280 0
-209 -278 280 0
243 209 -280 0
243 278 -280 0
209 278 -280 0
-281 245 211 280 0
-281 -245 -211 280 0
-281 -245 211 -280 0
-281 245 -211 -280 0
281 -245 -211 -280 0
281 245 211 -280 0
281 245 -211 280 0
281 -245 211 280 0
-245 -211 282 0
-245 -280 282 0
-211 -280 282 0
245 211 -282 0
245 280 -282 0
211 280 -282 0
-283 246 213 282 0
-283 -246 -213 282 0
-283 -246 213 -282 0
-283 246 -213 -282 0
283 -246 -213 -282 0
283 246 213 -282 0
283 246 -213 282 0
283 -246 213 282 0
-246 -213 284 0
-246 -282 284 0
-213 -282 284 0
246 213 -284 0
246 282 -284 0
213 282 -284 0
-285 215 284 0
-285 -215 -284 0
285 215 -284 0
285 -215 284 0
-215 -284 286 0
215 284 -286 0
215 -286 0
284 -286 0
-287 217 286 0
-287 -217 -286 0
287 217 -286 0
287 -217 286 0
-217 -286 288 0
217 286 -288 0
217 -288 0
286 -288 0
-289 219 288 0
-289 -219 -288 0
289 219 -288 0
289 -219 288 0
-219 -288 290 0
219 288 -290 0
219 -290 0
288 -290 0
-291 221 290 0
-291 -221 -290 0
291 221 -290 0
291 -221 290 0
-221 -290 292 0
221 290 -292 0
221 -292 0
290 -292 0
-293 222 292 0
-293 -222 -292 0
293 222 -292 0
293 -222 292 0
-222 -292 294 0
222 292 -294 0
222 -294 0
292 -294 0
-295 227 63 0
-295 -227 -63 0
295 227 -63 0
295 -227 63 0
-227 -63 296 0
227 63 -296 0
227 -296 0
63 -296 0
-297 229 163 296 0
-297 -229 -163 296 0
-297 -229 163 -296 0
-297 229 -163 -296 0
297 -229 -163 -296 0
297 229 163 -296 0
297 229 -163 296 0
297 -229 163 296 0
-229 -163 298 0
-229 -296 298 0
-163 -296 298 0
229 163 -298 0
229 296 -298 0
163 296 -298 0
-299 231 247 298 0
-299 -231 -247 298 0
-299 -231 247 -298 0
-299 231 -247 -298 0
299 -231 -247 -298 0
299 231 247 -298 0
299 231 -247 298 0
299 -231 247 298 0
-231 -247 300 0
-231 -298 300 0
-247 -298 300 0
231 247 -300 0
231 298 -300 0
247 298 -300 0
-301 233 249 300 0
-301 -233 -249 300 0
-301 -233 249 -300 0
-301 233 -249 -300 0
301 -233 -249 -300 0
301 233 249 -300 0
301 233 -249 300 0
301 -233 249 300 0
-233 -249 302 0
-233 -300 302 0
-249 -300 302 0
233 249 -302 0
233 300 -302 0
249 300 -302 0
-303 271 251 302 0
-303 -271 -251 302 0
-303 -271 251 -302 0
-303 271 -251 -302 0
303 -271 -251 -302 0
303 271 251 -302 0
303 271 -251 302 0
303 -271 251 302 0
-271 -251 304 0
-271 -302 304 0
-251 -302 304 0
271 251 -304 0
271 302 -304 0
251 302 -304 0
-305 273 253 304 0
-305 -273 -253 304 0
-305 -273 253 -304 0
-305 273 -253 -304 0
305 -273 -253 -304 0
305 273 253 -304 0
305 273 -253 304 0
305 -273 253 304 0
-273 -253 306 0
-273 -304 306 0
-253 -304 306 0
273 253 -306 0
273 304 -306 0
253 304 -306 0
-307 275 255 306 0
-307 -275 -255 306 0
-307 -275 255 -306 0
-307 275 -255 -306 0
307 -275 -255 -306 0
307 275 255 -306 0
307 275 -255 306 0
307 -275 255 306 0
-275 -255 308 0
-275 -306 308 0
-255 -306 308 0
275 255 -308 0
275 306 -308 0
255 306 -308 0
-309 277 257 308 0
-309 -277 -257 308 0
-309 -277 257 -308 0
-309 277 -257 -308 0
309 -277 -257 -308 0
309 277 257 -308 0
309 277 -257 308 0
309 -277 257 308 0
-277 -257 310 0
-277 -308 310 0
-257 -308 310 0
277 257 -310 0
277 308 -310 0
257 308 -310 0
-311 279 259 310 0
-311 -279 -259 310 0
-311 -279 259 -310 0
-311 279 -259 -310 0
311 -279 -259 -310 0
311 279 259 -310 0
311 279 -259 310 0
311 -279 259 310 0
-279 -259 312 0
-279 -310 312 0
-259 -310 312 0
279 259 -312 0
279 310 -312 0
259 310 -312 0
-313 281 261 312 0
-313 -281 -261 312 0
-313 -281 261 -312 0
-313 281 -261 -312 0
313 -281 -261 -312 0
313 281 261 -312 0
313 281 -261 312 0
313 -281 261 312 0
-281 -261 314 0
-281 -312 314 0
-261 -312 314 0
281 261 -314 0
281 312 -314 0
261 312 -314 0
-315 283 263 314 0
-315 -283 -263 314 0
-315 -283 263 -314 0
-315 283 -263 -314 0
315 -283 -263 -314 0
315 283 263 -314 0
315 283 -263 314 0
315 -283 263 314 0
-283 -263 316 0
-283 -314 316 0
-263 -314 316 0
283 263 -316 0
283 314 -316 0
263 314 -316 0
-317 285 265 316 0
-317 -285 -265 316 0
-317 -285 265 -316 0
-317 285 -265 -316 0
317 -285 -265 -316 0
317 285 265 -316 0
317 285 -265 316 0
317 -285 265 316 0
-285 -265 318 0
-285 -316 318 0
-265 -316 318 0
285 265 -318 0
285 316 -318 0
265 316 -318 0
-319 287 267 318 0
-319 -287 -267 318 0
-319 -287 267 -318 0
-319 287 -267 -318 0
319 -287 -267 -318 0
319 287 267 -318 0
319 287 -267 318 0
319 -287 267 318 0
-287 -267 320 0
-287 -318 320 0
-267 -318 320 0
287 267 -320 0
287 318 -320 0
267 318 -320 0
-321 289 269 320 0
-321 -289 -269 320 0
-321 -289 269 -320 0
-321 289 -269 -320 0
321 -289 -269 -320 0
321 289 269 -320 0
321 289 -269 320 0
321 -289 269 320 0
-289 -269 322 0
-289 -320 322 0
-269 -320 322 0
289 269 -322 0
289 320 -322 0
269 320 -322 0
-323 291 270 322 0
-323 -291 -270 322 0
-323 -291 270 -322 0
-323 291 -270 -322 0
323 -291 -270 -322 0
323 291 270 -322 0
323 291 -270 322 0
323 -291 270 322 0
-291 -270 324 0
-291 -322 324 0
-270 -322 324 0
291 270 -324 0
291 322 -324 0
270 322 -324 0
-325 293 324 0
-325 -293 -324 0
325 293 -324 0
325 -293 324 0
-293 -324 326 0
293 324 -326 0
293 -326 0
324 -326 0
-327 294 326 0
-327 -294 -326 0
327 294 -326 0
327 -294 326 0
-294 -326 328 0
294 326 -328 0
294 -328 0
326 -328 0
23 -1 -11 0
-23 1 0
-23 11 0
24 -2 -11 0
-24 2 0
-24 11 0
25 -3 -11 0
-25 3 0
-25 11 0
26 -4 -11 0
-26 4 0
-26 11 0
27 -5 -11 0
-27 5 0
-27 11 0
28 -6 -11 0
-28 6 0
-28 11 0
29 -7 -11 0
-29 7 0
-29 11 0
30 -8 -11 0
-30 8 0
-30 11 0
31 -9 -11 0
-31 9 0
-31 11 0
32 -10 -11 0
-32 10 0
-32 11 0
33 -1 -12 0
-33 1 0
-33 12 0
34 -2 -12 0
-34 2 0
-34 12 0
35 -3 -12 0
-35 3 0
-35 12 0
36 -4 -12 0
-36 4 0
-36 12 0
37 -5 -12 0
-37 5 0
-37 12 0
38 -6 -12 0
-38 6 0
-38 12 0
39 -7 -12 0
-39 7 0
-39 12 0
40 -8 -12 0
-40 8 0
-40 12 0
41 -9 -12 0
-41 9 0
-41 12 0
42 -10 -12 0
-42 10 0
-42 12 0
43 -1 -13 0
-43 1 0
-43 13 0
44 -2 -13 0
-44 2 0
-44 13 0
45 -3 -13 0
-45 3 0
-45 13 0
46 -4 -13 0
-46 4 0
-46 13 0
47 -5 -13 0
-47 5 0
-47 13 0
48 -6 -13 0
-48 6 0
-48 13 0
49 -7 -13 0
-49 7 0
-49 13 0
50 -8 -13 0
-50 8 0
-50 13 0
51 -9 -13 0
-51 9 0
-51 13 0
52 -10 -13 0
-52 10 0
-52 13 0
53 -1 -14 0
-53 1 0
-53 14 0
54 -2 -14 0
-54 2 0
-54 14 0
55 -3 -14 0
-55 3 0
-55 14 0
56 -4 -14 0
-56 4 0
-56 14 0
57 -5 -14 0
-57 5 0
-57 14 0
58 -6 -14 0
-58 6 0
-58 14 0
59 -7 -14 0
-59 7 0
-59 14 0
60 -8 -14 0
-60 8 0
-60 14 0
61 -9 -14 0
-61 9 0
-61 14 0
62 -10 -14 0
-62 10 0
-62 14 0
63 -1 -15 0
-63 1 0
-63 15 0
64 -2 -15 0
-64 2 0
-64 15 0
65 -3 -15 0
-65 3 0
-65 15 0
66 -4 -15 0
-66 4 0
-66 15 0
67 -5 -15 0
-67 5 0
-67 15 0
68 -6 -15 0
-68 6 0
-68 15 0
69 -7 -15 0
-69 7 0
-69 15 0
70 -8 -15 0
-70 8 0
-70 15 0
71 -9 -15 0
-71 9 0
-71 15 0
72 -10 -15 0
-72 10 0
-72 15 0
73 -1 -16 0
-73 1 0
-73 16 0
74 -2 -16 0
-74 2 0
-74 16 0
75 -3 -16 0
-75 3 0
-75 16 0
76 -4 -16 0
-76 4 0
-76 16 0
77 -5 -16 0
-77 5 0
-77 16 0
78 -6 -16 0
-78 6 0
-78 16 0
79 -7 -16 0
-79 7 0
-79 16 0
80 -8 -16 0
-80 8 0
-80 16 0
81 -9 -16 0
-81 9 0
-81 16 0
82 -10 -16 0
-82 10 0
-82 16 0
83 -1 -17 0
-83 1 0
-83 17 0
84 -2 -17 0
-84 2 0
-84 17 0
85 -3 -17 0
-85 3 0
-85 17 0
86 -4 -17 0
-86 4 0
-86 17 0
87 -5 -17 0
-87 5 0
-87 17 0
88 -6 -17 0
-88 6 0
-88 17 0
89 -7 -17 0
-89 7 0
-89 17 0
90 -8 -17 0
-90 8 0
-90 17 0
91 -9 -17 0
-91 9 0
-91 17 0
92 -10 -17 0
-92 10 0
-92 17 0
93 -1 -18 0
-93 1 0
-93 18 0
94 -2 -18 0
-94 2 0
-94 18 0
95 -3 -18 0
-95 3 0
-95 18 0
96 -4 -18 0
-96 4 0
-96 18 0
97 -5 -18 0
-97 5 0
-97 18 0
98 -6 -18 0
-98 6 0
-98 18 0
99 -7 -18 0
-99 7 0
-99 18 0
100 -8 -18 0
-100 8 0
-100 18 0
101 -9 -18 0
-101 9 0
-101 18 0
102 -10 -18 0
-102 10 0
-102 18 0
103 -1 -19 0
-103 1 0
-103 19 0
104 -2 -19 0
-104 2 0
-104 19 0
105 -3 -19 0
-105 3 0
-105 19 0
106 -4 -19 0
-106 4 0
-106 19 0
107 -5 -19 0
-107 5 0
-107 19 0
108 -6 -19 0
-108 6 0
-108 19 0
109 -7 -19 0
-109 7 0
-109 19 0
110 -8 -19 0
-110 8 0
-110 19 0
111 -9 -19 0
-111 9 0
-111 19 0
112 -10 -19 0
-112 10 0
-112 19 0
113 -1 -20 0
-113 1 0
-113 20 0
114 -2 -20 0
-114 2 0
-114 20 0
115 -3 -20 0
-115 3 0
-115 20 0
116 -4 -20 0
-116 4 0
-116 20 0
117 -5 -20 0
-117 5 0
-117 20 0
118 -6 -20 0
-118 6 0
-118 20 0
119 -7 -20 0
-119 7 0
-119 20 0
120 -8 -20 0
-120 8 0
-120 20 0
121 -9 -20 0
-121 9 0
-121 20 0
122 -10 -20 0
-122 10 0
-122 20 0
23 -21 0
-23 21 0
123 -21 0
-123 21 0
223 -21 0
-223 21 0
225 -21 0
-225 21 0
295 -21 0
-295 21 0
297 -21 0
-297 21 0
299 -21 0
-299 21 0
301 -22 0
-301 22 0
303 -22 0
-303 22 0
305 -21 0
-305 21 0
307 -21 0
-307 21 0
309 -22 0
-309 22 0
311 -21 0
-311 21 0
313 -22 0
-313 22 0
315 -21 0
-315 21 0
317 -22 0
-317 22 0
319 -22 0
-319 22 0
321 -22 0
-321 22 0
323 -21 0
-323 21 0
325 -21 0
-325 21 0
327 -21 0
-327 21 0
328 -21 0
-328 21 0
